10J3M/DAT/10J3MNLA-14.dat
10 3
24.9508 622.5424
26.6622 710.8729
24.1169 581.6249
20.992 440.6641
29.3145 859.3399
25.8556 668.5121
16.5357 273.4294
32.0274 1025.7544
27.6954 767.0352
26.8069 718.6099
2222.7951