10J3M/SOL/10J3MNLA-14.sol
solution status: optimal solution found
objective value:                     87.1685333333333
x#1#2                                               1 	(obj:0)
x#2#1                                               1 	(obj:0)
x#3#2                               0.970485661051181 	(obj:0)
x#3#3                              0.0295143389488191 	(obj:0)
x#4#3                                               1 	(obj:0)
x#5#1                               0.895230371708266 	(obj:0)
x#5#3                               0.104769628291734 	(obj:0)
x#6#1                               0.359569477036616 	(obj:0)
x#6#2                               0.281022160796821 	(obj:0)
x#6#3                               0.359408362166563 	(obj:0)
x#7#2                                               1 	(obj:0)
x#8#3                                               1 	(obj:0)
x#9#3                                               1 	(obj:0)
x#10#1                                              1 	(obj:0)
z                                    87.1685333333333 	(obj:1)
